# NSCBC-Acoustic: a right-running acoustic pulse hitting a non-reflecting
# subsonic outflow.  AMReX-side counterpart of check C4 in
# Verification/NSCBC1D.
max_step = 3000
stop_time = 4.6e-4

geometry.is_periodic = 0 1 0
geometry.coord_sys   = 0
geometry.prob_lo     = 0.0   0.0
geometry.prob_hi     = 10.0  0.5

# x-lo is a wall, x-hi is the characteristic outflow under test
pelec.lo_bc = "NoSlipWall" "Interior"
pelec.hi_bc = "UserBC"     "Interior"

# ---- the boundary condition under test ----
pelec.bc_nscbc       = 1
pelec.bc_nscbc_sigma = 0.25
pelec.bc_nscbc_order = 2

pelec.do_hydro = 1
pelec.do_mol = 0
pelec.diffuse_vel = 0
pelec.diffuse_temp = 0
pelec.diffuse_spec = 0
pelec.do_react = 0
pelec.allow_negative_energy = 0

pelec.cfl = 0.4
pelec.init_shrink = 1.0
pelec.change_max = 1.05
pelec.dt_cutoff = 5.e-20
pelec.v = 1
amr.v = 1

amr.n_cell   = 400 8
amr.max_level = 0
amr.blocking_factor = 8
amr.max_grid_size = 64

amr.checkpoint_files_output = 0
amr.plot_files_output = 1
amr.plot_int = 1600
amr.plot_file = plt
amr.derive_plot_vars = pressure x_velocity
