# NSCBC-Acoustic CORNER variant: the planar pulse of nscbc-acoustic.inp, but
# with y WALLS instead of periodic -- so the characteristic outflow at x-hi
# meets a NoSlipWall at two corners.  The pulse is uniform in y and carries
# no v, so the exact solution stays y-uniform through the crossing: ANY
# y-structure in the residual, and any v at all, is corner-manufactured.
# This is the wall/NSCBC corner seam (clamped tangential stencils at the
# wall-adjacent rows) measured directly, with no reference solution needed.
max_step = 3000
stop_time = 4.6e-4

geometry.is_periodic = 0 0
geometry.coord_sys   = 0
geometry.prob_lo     = 0.0   0.0
geometry.prob_hi     = 10.0  0.5

pelec.lo_bc = "NoSlipWall" "NoSlipWall"
pelec.hi_bc = "UserBC"     "NoSlipWall"

pelec.bc_nscbc       = 1
pelec.bc_nscbc_sigma = 0.25
pelec.bc_nscbc_order = 2

pelec.do_hydro = 1
pelec.do_mol = 0
pelec.diffuse_vel = 0
pelec.diffuse_temp = 0
pelec.diffuse_spec = 0
pelec.do_react = 0
pelec.allow_negative_energy = 0

pelec.cfl = 0.4
pelec.init_shrink = 1.0
pelec.change_max = 1.05
pelec.dt_cutoff = 5.e-20
pelec.v = 1
amr.v = 1

amr.n_cell   = 400 8
amr.max_level = 0
amr.blocking_factor = 8
amr.max_grid_size = 64

amr.checkpoint_files_output = 0
amr.plot_files_output = 1
amr.plot_int = 1600
amr.plot_file = plt
amr.derive_plot_vars = pressure x_velocity y_velocity
