# NSCBC-Acoustic DUCT mode: the PeleC half of the driver's t3/t5
# injection-fidelity measurements (Verification/NSCBC1D/README.md).
#
# A uniform stream enters through a characteristic INFLOW at x-lo whose
# velocity target carries a harmonic forcing; x-hi is the case's hard-pressure
# bcnormal -- the fully reflecting far end.  The quantities of interest are
# the achieved forcing amplitude at the inlet (the deterioration index) and
# the standing-wave P_RMS(x) pattern, measured by duct_metrics.py against the
# same analytic references as the driver.
#
# Per-run overrides (the t3/t5 matrix): prob.force_freq, pelec.bc_nscbc_relax_u,
# stop_time = 6 t_a + 4 periods, amr.plot_per = period / 24.  The banner
# prints the duct's quarter-wave f0 so nothing re-derives it.
max_step  = 1000000
stop_time = 8.1e-3

geometry.is_periodic = 0 1
geometry.coord_sys   = 0
geometry.prob_lo     = 0.0   0.0
geometry.prob_hi     = 10.0  0.4

# x-lo is the characteristic inflow under test; x-hi falls back to the
# hard-pressure bcnormal (bcnormal_nscbc returns `off` there in duct mode).
pelec.lo_bc = "UserBC" "Interior"
pelec.hi_bc = "UserBC" "Interior"

pelec.bc_nscbc         = 1
pelec.bc_nscbc_sigma   = 0.25
pelec.bc_nscbc_relax_u = 2.0
pelec.bc_nscbc_relax_t = 0.2
pelec.bc_nscbc_order   = 2

prob.pulse_type = 2
prob.u0         = 2000.0
prob.force_amp  = 34.7
prob.force_freq = 865.1

pelec.do_hydro = 1
pelec.do_mol = 0
pelec.diffuse_vel = 0
pelec.diffuse_temp = 0
pelec.diffuse_spec = 0
pelec.do_react = 0
pelec.allow_negative_energy = 0

pelec.cfl = 0.4
pelec.init_shrink = 1.0
pelec.change_max = 1.05
pelec.dt_cutoff = 5.e-20
pelec.v = 1
amr.v = 1

amr.n_cell   = 200 8
amr.max_level = 0
amr.blocking_factor = 8
amr.max_grid_size = 64

amr.checkpoint_files_output = 0
amr.plot_files_output = 1
amr.plot_int = -1
amr.plot_per = 4.8e-5
amr.plot_file = plt
amr.derive_plot_vars = pressure x_velocity
