# NSCBC-COVO: an isentropic vortex convected out through a subsonic outflow,
# fed by a subsonic inflow.  y is periodic, so the two x faces are the only
# things that can go wrong.  A vortex carries no acoustic content, so any
# pressure signal left in the domain after it leaves was manufactured by the
# boundary.
max_step  = 3000
stop_time = 1.4e-3

geometry.is_periodic = 0 1
geometry.coord_sys   = 0
geometry.prob_lo     = 0.0  0.0
geometry.prob_hi     = 10.0 5.0

pelec.lo_bc = "UserBC" "Interior"
pelec.hi_bc = "UserBC" "Interior"

pelec.bc_nscbc         = 1
pelec.bc_nscbc_sigma   = 0.25
pelec.bc_nscbc_relax_u = 2.0
pelec.bc_nscbc_relax_t = 0.2
pelec.bc_nscbc_order   = 2

prob.probtype        = 0
prob.mach            = 0.2
prob.vortex_strength = 0.5
prob.vortex_radius   = 0.075
prob.centre          = 0.25 0.5

pelec.do_hydro = 1
pelec.do_mol = 0
pelec.diffuse_vel = 0
pelec.diffuse_temp = 0
pelec.diffuse_spec = 0
pelec.do_react = 0
pelec.allow_negative_energy = 0

pelec.cfl = 0.4
pelec.init_shrink = 1.0
pelec.change_max = 1.05
pelec.v = 1
amr.v = 1

amr.n_cell   = 200 100
amr.max_level = 0
amr.blocking_factor = 4
amr.max_grid_size = 64

amr.checkpoint_files_output = 0
amr.plot_files_output = 1
amr.plot_int = 250
amr.plot_file = plt
amr.derive_plot_vars = pressure x_velocity y_velocity magvort
