# NSCBC-COVO: the periodic-wrap gate.
#
# Not a physics run -- it takes zero steps.  It exists so that
# PeleC::nscbc_check_periodic_wrap() has something to bite on.
#
# The check measures an identity that needs no reference solution: where a
# tangential direction is periodic, a characteristic ghost cell and its image
# one period away should agree.  amrex's corner protocol (StateDataPhysBCFunct
# recomputes corner ghosts on a strip FAB holding only their image band) makes
# exact agreement unattainable for the measured-stable clamped stencil, which
# leaves an O(1e-4) residual here (up to 1.6e-3 with a flame on the seam
# corner); the gate reports it and aborts only above 1e-2, which a genuinely
# broken stencil (a naive wrap: 2.2e-2) fails.
#
# Three things have to be true for the check to discriminate, and all three
# are arranged here rather than left to luck:
#
#   1. A box must hold a ghost cell and its image together, so max_grid_size
#      is large enough that y (100 cells) is not decomposed.  The check
#      reports NOT CHECKED rather than passing if this is not so.
#   2. The state must vary along the boundary.  A field uniform in y satisfies
#      the clamped fill exactly as well as the wrapped one, which is how this
#      defect survived every 2-D case on the branch -- Acoustic and PMF are
#      uniform along their periodic direction and pass vacuously.
#   3. The variation must sit at the PERIODIC SEAM, not merely somewhere in
#      the domain, since that is where the residual lives.  So
#      the vortex is centred on the inflow face at y = 0, straddling the seam.
#      This gates the INFLOW face; run again with prob.centre = 1.0 0.0 to put
#      the vortex on the outflow corner and gate the other face.
#      That makes the initial condition discontinuous across it, which does
#      not matter in the slightest: the identity is a property of the fill
#      reading FillBoundary's images, not of the physics being periodic.
#
# The transverse terms read a tangential stencil of their own, and it is only
# assembled when beta < 1, so beta is set away from its default here.  With
# beta = 1 this file would gate half the fix.

max_step  = 0
stop_time = 1.0

geometry.is_periodic = 0 1
geometry.coord_sys   = 0
geometry.prob_lo     = 0.0  0.0
geometry.prob_hi     = 10.0 5.0

pelec.lo_bc = "UserBC" "Interior"
pelec.hi_bc = "UserBC" "Interior"

pelec.bc_nscbc         = 1
pelec.bc_nscbc_sigma   = 0.25
pelec.bc_nscbc_relax_u = 2.0
pelec.bc_nscbc_relax_t = 0.2
pelec.bc_nscbc_order   = 2
pelec.bc_nscbc_beta    = 0.5

prob.probtype        = 0
prob.mach            = 0.2
prob.vortex_strength = 0.5
prob.vortex_radius   = 0.1
prob.centre          = 0.0 0.0

pelec.do_hydro = 1
pelec.do_mol = 0
pelec.diffuse_vel = 0
pelec.diffuse_temp = 0
pelec.diffuse_spec = 0
pelec.do_react = 0
pelec.allow_negative_energy = 0

pelec.cfl = 0.4
pelec.init_shrink = 1.0
pelec.change_max = 1.05
pelec.v = 1
amr.v = 1

amr.n_cell   = 200 100
amr.max_level = 0
amr.blocking_factor = 4
amr.max_grid_size = 128

amr.checkpoint_files_output = 0
amr.plot_files_output = 0
