# NSCBC-Pulse2D: a circular Gaussian pressure pulse in a quiescent square with
# all four faces non-reflecting, after Motheau et al. (2017).  The outgoing
# wave meets every face and every corner at once; the diagnostic is whether
# the pressure contours stay circular as the wave crosses the boundary.
max_step  = 3000
stop_time = 2.6e-4

geometry.is_periodic = 0 0
geometry.coord_sys   = 0
geometry.prob_lo     = -5.0 -5.0
geometry.prob_hi     =  5.0  5.0

pelec.lo_bc = "UserBC" "UserBC"
pelec.hi_bc = "UserBC" "UserBC"

pelec.bc_nscbc         = 1
pelec.bc_nscbc_sigma   = 0.25
pelec.bc_nscbc_order   = 2

prob.probtype    = 1
prob.pulse_amp   = 1.0e-3
prob.pulse_width = 0.06
prob.centre      = 0.5 0.5

pelec.do_hydro = 1
pelec.do_mol = 0
pelec.diffuse_vel = 0
pelec.diffuse_temp = 0
pelec.diffuse_spec = 0
pelec.do_react = 0
pelec.allow_negative_energy = 0

pelec.cfl = 0.4
pelec.init_shrink = 1.0
pelec.change_max = 1.05
pelec.v = 1
amr.v = 1

amr.n_cell   = 200 200
amr.max_level = 0
amr.blocking_factor = 8
amr.max_grid_size = 64

amr.checkpoint_files_output = 0
amr.plot_files_output = 1
amr.plot_int = 100
amr.plot_file = plt
amr.derive_plot_vars = pressure x_velocity y_velocity
